NAME          DEMO1
ROWS
 N  OBJ
 L  ROW1
 L  ROW2
 L  ROW3
 L  ROW4
 L  ROW5
 L  ROW6
COLUMNS
    COL1      OBJ                  8   ROW1                 2
    COL1      ROW2                 1
    COL2      OBJ                  2   ROW1                 3
    COL2      ROW2                 2
    COL3      OBJ                  5   ROW1                 4
    COL3      ROW2                 3   ROW3                 1
    COL3      ROW4                 2
    COL4      OBJ                  5   ROW1                 1
    COL4      ROW2                 2   ROW3                 4
    COL4      ROW4                 1
    COL5      OBJ                  8   ROW3                 3
    COL5      ROW4                 1
    COL6      OBJ                  3   ROW3                 4
    COL6      ROW4                 2
    COL7      OBJ                  9   ROW3                 2
    COL7      ROW4                 5   ROW5                 2
    COL7      ROW6                 3
    COL8      OBJ                  7   ROW5                 1
    COL8      ROW6                 4
    COL9      OBJ                  6   ROW5                 2
    COL9      ROW6                 1
RHS
    RHS1      ROW1                 7   ROW2                 6
    RHS1      ROW3                 9   ROW4                 7
    RHS1      ROW5                 3   ROW6                 5
BOUNDS
 UP BND1      ROW1                 1
 LO BND1      ROW1                 0
ENDATA
